c created by edge2cnf
p cnf 500 3100
-1 -2 0
-1 -3 0
-1 -4 0
-1 -5 0
-2 -3 0
-2 -4 0
-2 -5 0
-3 -4 0
-3 -5 0
-4 -5 0
1 2 3 4 5 0
-6 -7 0
-6 -8 0
-6 -9 0
-6 -10 0
-7 -8 0
-7 -9 0
-7 -10 0
-8 -9 0
-8 -10 0
-9 -10 0
6 7 8 9 10 0
-11 -12 0
-11 -13 0
-11 -14 0
-11 -15 0
-12 -13 0
-12 -14 0
-12 -15 0
-13 -14 0
-13 -15 0
-14 -15 0
11 12 13 14 15 0
-16 -17 0
-16 -18 0
-16 -19 0
-16 -20 0
-17 -18 0
-17 -19 0
-17 -20 0
-18 -19 0
-18 -20 0
-19 -20 0
16 17 18 19 20 0
-21 -22 0
-21 -23 0
-21 -24 0
-21 -25 0
-22 -23 0
-22 -24 0
-22 -25 0
-23 -24 0
-23 -25 0
-24 -25 0
21 22 23 24 25 0
-26 -27 0
-26 -28 0
-26 -29 0
-26 -30 0
-27 -28 0
-27 -29 0
-27 -30 0
-28 -29 0
-28 -30 0
-29 -30 0
26 27 28 29 30 0
-31 -32 0
-31 -33 0
-31 -34 0
-31 -35 0
-32 -33 0
-32 -34 0
-32 -35 0
-33 -34 0
-33 -35 0
-34 -35 0
31 32 33 34 35 0
-36 -37 0
-36 -38 0
-36 -39 0
-36 -40 0
-37 -38 0
-37 -39 0
-37 -40 0
-38 -39 0
-38 -40 0
-39 -40 0
36 37 38 39 40 0
-41 -42 0
-41 -43 0
-41 -44 0
-41 -45 0
-42 -43 0
-42 -44 0
-42 -45 0
-43 -44 0
-43 -45 0
-44 -45 0
41 42 43 44 45 0
-46 -47 0
-46 -48 0
-46 -49 0
-46 -50 0
-47 -48 0
-47 -49 0
-47 -50 0
-48 -49 0
-48 -50 0
-49 -50 0
46 47 48 49 50 0
-51 -52 0
-51 -53 0
-51 -54 0
-51 -55 0
-52 -53 0
-52 -54 0
-52 -55 0
-53 -54 0
-53 -55 0
-54 -55 0
51 52 53 54 55 0
-56 -57 0
-56 -58 0
-56 -59 0
-56 -60 0
-57 -58 0
-57 -59 0
-57 -60 0
-58 -59 0
-58 -60 0
-59 -60 0
56 57 58 59 60 0
-61 -62 0
-61 -63 0
-61 -64 0
-61 -65 0
-62 -63 0
-62 -64 0
-62 -65 0
-63 -64 0
-63 -65 0
-64 -65 0
61 62 63 64 65 0
-66 -67 0
-66 -68 0
-66 -69 0
-66 -70 0
-67 -68 0
-67 -69 0
-67 -70 0
-68 -69 0
-68 -70 0
-69 -70 0
66 67 68 69 70 0
-71 -72 0
-71 -73 0
-71 -74 0
-71 -75 0
-72 -73 0
-72 -74 0
-72 -75 0
-73 -74 0
-73 -75 0
-74 -75 0
71 72 73 74 75 0
-76 -77 0
-76 -78 0
-76 -79 0
-76 -80 0
-77 -78 0
-77 -79 0
-77 -80 0
-78 -79 0
-78 -80 0
-79 -80 0
76 77 78 79 80 0
-81 -82 0
-81 -83 0
-81 -84 0
-81 -85 0
-82 -83 0
-82 -84 0
-82 -85 0
-83 -84 0
-83 -85 0
-84 -85 0
81 82 83 84 85 0
-86 -87 0
-86 -88 0
-86 -89 0
-86 -90 0
-87 -88 0
-87 -89 0
-87 -90 0
-88 -89 0
-88 -90 0
-89 -90 0
86 87 88 89 90 0
-91 -92 0
-91 -93 0
-91 -94 0
-91 -95 0
-92 -93 0
-92 -94 0
-92 -95 0
-93 -94 0
-93 -95 0
-94 -95 0
91 92 93 94 95 0
-96 -97 0
-96 -98 0
-96 -99 0
-96 -100 0
-97 -98 0
-97 -99 0
-97 -100 0
-98 -99 0
-98 -100 0
-99 -100 0
96 97 98 99 100 0
-101 -102 0
-101 -103 0
-101 -104 0
-101 -105 0
-102 -103 0
-102 -104 0
-102 -105 0
-103 -104 0
-103 -105 0
-104 -105 0
101 102 103 104 105 0
-106 -107 0
-106 -108 0
-106 -109 0
-106 -110 0
-107 -108 0
-107 -109 0
-107 -110 0
-108 -109 0
-108 -110 0
-109 -110 0
106 107 108 109 110 0
-111 -112 0
-111 -113 0
-111 -114 0
-111 -115 0
-112 -113 0
-112 -114 0
-112 -115 0
-113 -114 0
-113 -115 0
-114 -115 0
111 112 113 114 115 0
-116 -117 0
-116 -118 0
-116 -119 0
-116 -120 0
-117 -118 0
-117 -119 0
-117 -120 0
-118 -119 0
-118 -120 0
-119 -120 0
116 117 118 119 120 0
-121 -122 0
-121 -123 0
-121 -124 0
-121 -125 0
-122 -123 0
-122 -124 0
-122 -125 0
-123 -124 0
-123 -125 0
-124 -125 0
121 122 123 124 125 0
-126 -127 0
-126 -128 0
-126 -129 0
-126 -130 0
-127 -128 0
-127 -129 0
-127 -130 0
-128 -129 0
-128 -130 0
-129 -130 0
126 127 128 129 130 0
-131 -132 0
-131 -133 0
-131 -134 0
-131 -135 0
-132 -133 0
-132 -134 0
-132 -135 0
-133 -134 0
-133 -135 0
-134 -135 0
131 132 133 134 135 0
-136 -137 0
-136 -138 0
-136 -139 0
-136 -140 0
-137 -138 0
-137 -139 0
-137 -140 0
-138 -139 0
-138 -140 0
-139 -140 0
136 137 138 139 140 0
-141 -142 0
-141 -143 0
-141 -144 0
-141 -145 0
-142 -143 0
-142 -144 0
-142 -145 0
-143 -144 0
-143 -145 0
-144 -145 0
141 142 143 144 145 0
-146 -147 0
-146 -148 0
-146 -149 0
-146 -150 0
-147 -148 0
-147 -149 0
-147 -150 0
-148 -149 0
-148 -150 0
-149 -150 0
146 147 148 149 150 0
-151 -152 0
-151 -153 0
-151 -154 0
-151 -155 0
-152 -153 0
-152 -154 0
-152 -155 0
-153 -154 0
-153 -155 0
-154 -155 0
151 152 153 154 155 0
-156 -157 0
-156 -158 0
-156 -159 0
-156 -160 0
-157 -158 0
-157 -159 0
-157 -160 0
-158 -159 0
-158 -160 0
-159 -160 0
156 157 158 159 160 0
-161 -162 0
-161 -163 0
-161 -164 0
-161 -165 0
-162 -163 0
-162 -164 0
-162 -165 0
-163 -164 0
-163 -165 0
-164 -165 0
161 162 163 164 165 0
-166 -167 0
-166 -168 0
-166 -169 0
-166 -170 0
-167 -168 0
-167 -169 0
-167 -170 0
-168 -169 0
-168 -170 0
-169 -170 0
166 167 168 169 170 0
-171 -172 0
-171 -173 0
-171 -174 0
-171 -175 0
-172 -173 0
-172 -174 0
-172 -175 0
-173 -174 0
-173 -175 0
-174 -175 0
171 172 173 174 175 0
-176 -177 0
-176 -178 0
-176 -179 0
-176 -180 0
-177 -178 0
-177 -179 0
-177 -180 0
-178 -179 0
-178 -180 0
-179 -180 0
176 177 178 179 180 0
-181 -182 0
-181 -183 0
-181 -184 0
-181 -185 0
-182 -183 0
-182 -184 0
-182 -185 0
-183 -184 0
-183 -185 0
-184 -185 0
181 182 183 184 185 0
-186 -187 0
-186 -188 0
-186 -189 0
-186 -190 0
-187 -188 0
-187 -189 0
-187 -190 0
-188 -189 0
-188 -190 0
-189 -190 0
186 187 188 189 190 0
-191 -192 0
-191 -193 0
-191 -194 0
-191 -195 0
-192 -193 0
-192 -194 0
-192 -195 0
-193 -194 0
-193 -195 0
-194 -195 0
191 192 193 194 195 0
-196 -197 0
-196 -198 0
-196 -199 0
-196 -200 0
-197 -198 0
-197 -199 0
-197 -200 0
-198 -199 0
-198 -200 0
-199 -200 0
196 197 198 199 200 0
-201 -202 0
-201 -203 0
-201 -204 0
-201 -205 0
-202 -203 0
-202 -204 0
-202 -205 0
-203 -204 0
-203 -205 0
-204 -205 0
201 202 203 204 205 0
-206 -207 0
-206 -208 0
-206 -209 0
-206 -210 0
-207 -208 0
-207 -209 0
-207 -210 0
-208 -209 0
-208 -210 0
-209 -210 0
206 207 208 209 210 0
-211 -212 0
-211 -213 0
-211 -214 0
-211 -215 0
-212 -213 0
-212 -214 0
-212 -215 0
-213 -214 0
-213 -215 0
-214 -215 0
211 212 213 214 215 0
-216 -217 0
-216 -218 0
-216 -219 0
-216 -220 0
-217 -218 0
-217 -219 0
-217 -220 0
-218 -219 0
-218 -220 0
-219 -220 0
216 217 218 219 220 0
-221 -222 0
-221 -223 0
-221 -224 0
-221 -225 0
-222 -223 0
-222 -224 0
-222 -225 0
-223 -224 0
-223 -225 0
-224 -225 0
221 222 223 224 225 0
-226 -227 0
-226 -228 0
-226 -229 0
-226 -230 0
-227 -228 0
-227 -229 0
-227 -230 0
-228 -229 0
-228 -230 0
-229 -230 0
226 227 228 229 230 0
-231 -232 0
-231 -233 0
-231 -234 0
-231 -235 0
-232 -233 0
-232 -234 0
-232 -235 0
-233 -234 0
-233 -235 0
-234 -235 0
231 232 233 234 235 0
-236 -237 0
-236 -238 0
-236 -239 0
-236 -240 0
-237 -238 0
-237 -239 0
-237 -240 0
-238 -239 0
-238 -240 0
-239 -240 0
236 237 238 239 240 0
-241 -242 0
-241 -243 0
-241 -244 0
-241 -245 0
-242 -243 0
-242 -244 0
-242 -245 0
-243 -244 0
-243 -245 0
-244 -245 0
241 242 243 244 245 0
-246 -247 0
-246 -248 0
-246 -249 0
-246 -250 0
-247 -248 0
-247 -249 0
-247 -250 0
-248 -249 0
-248 -250 0
-249 -250 0
246 247 248 249 250 0
-251 -252 0
-251 -253 0
-251 -254 0
-251 -255 0
-252 -253 0
-252 -254 0
-252 -255 0
-253 -254 0
-253 -255 0
-254 -255 0
251 252 253 254 255 0
-256 -257 0
-256 -258 0
-256 -259 0
-256 -260 0
-257 -258 0
-257 -259 0
-257 -260 0
-258 -259 0
-258 -260 0
-259 -260 0
256 257 258 259 260 0
-261 -262 0
-261 -263 0
-261 -264 0
-261 -265 0
-262 -263 0
-262 -264 0
-262 -265 0
-263 -264 0
-263 -265 0
-264 -265 0
261 262 263 264 265 0
-266 -267 0
-266 -268 0
-266 -269 0
-266 -270 0
-267 -268 0
-267 -269 0
-267 -270 0
-268 -269 0
-268 -270 0
-269 -270 0
266 267 268 269 270 0
-271 -272 0
-271 -273 0
-271 -274 0
-271 -275 0
-272 -273 0
-272 -274 0
-272 -275 0
-273 -274 0
-273 -275 0
-274 -275 0
271 272 273 274 275 0
-276 -277 0
-276 -278 0
-276 -279 0
-276 -280 0
-277 -278 0
-277 -279 0
-277 -280 0
-278 -279 0
-278 -280 0
-279 -280 0
276 277 278 279 280 0
-281 -282 0
-281 -283 0
-281 -284 0
-281 -285 0
-282 -283 0
-282 -284 0
-282 -285 0
-283 -284 0
-283 -285 0
-284 -285 0
281 282 283 284 285 0
-286 -287 0
-286 -288 0
-286 -289 0
-286 -290 0
-287 -288 0
-287 -289 0
-287 -290 0
-288 -289 0
-288 -290 0
-289 -290 0
286 287 288 289 290 0
-291 -292 0
-291 -293 0
-291 -294 0
-291 -295 0
-292 -293 0
-292 -294 0
-292 -295 0
-293 -294 0
-293 -295 0
-294 -295 0
291 292 293 294 295 0
-296 -297 0
-296 -298 0
-296 -299 0
-296 -300 0
-297 -298 0
-297 -299 0
-297 -300 0
-298 -299 0
-298 -300 0
-299 -300 0
296 297 298 299 300 0
-301 -302 0
-301 -303 0
-301 -304 0
-301 -305 0
-302 -303 0
-302 -304 0
-302 -305 0
-303 -304 0
-303 -305 0
-304 -305 0
301 302 303 304 305 0
-306 -307 0
-306 -308 0
-306 -309 0
-306 -310 0
-307 -308 0
-307 -309 0
-307 -310 0
-308 -309 0
-308 -310 0
-309 -310 0
306 307 308 309 310 0
-311 -312 0
-311 -313 0
-311 -314 0
-311 -315 0
-312 -313 0
-312 -314 0
-312 -315 0
-313 -314 0
-313 -315 0
-314 -315 0
311 312 313 314 315 0
-316 -317 0
-316 -318 0
-316 -319 0
-316 -320 0
-317 -318 0
-317 -319 0
-317 -320 0
-318 -319 0
-318 -320 0
-319 -320 0
316 317 318 319 320 0
-321 -322 0
-321 -323 0
-321 -324 0
-321 -325 0
-322 -323 0
-322 -324 0
-322 -325 0
-323 -324 0
-323 -325 0
-324 -325 0
321 322 323 324 325 0
-326 -327 0
-326 -328 0
-326 -329 0
-326 -330 0
-327 -328 0
-327 -329 0
-327 -330 0
-328 -329 0
-328 -330 0
-329 -330 0
326 327 328 329 330 0
-331 -332 0
-331 -333 0
-331 -334 0
-331 -335 0
-332 -333 0
-332 -334 0
-332 -335 0
-333 -334 0
-333 -335 0
-334 -335 0
331 332 333 334 335 0
-336 -337 0
-336 -338 0
-336 -339 0
-336 -340 0
-337 -338 0
-337 -339 0
-337 -340 0
-338 -339 0
-338 -340 0
-339 -340 0
336 337 338 339 340 0
-341 -342 0
-341 -343 0
-341 -344 0
-341 -345 0
-342 -343 0
-342 -344 0
-342 -345 0
-343 -344 0
-343 -345 0
-344 -345 0
341 342 343 344 345 0
-346 -347 0
-346 -348 0
-346 -349 0
-346 -350 0
-347 -348 0
-347 -349 0
-347 -350 0
-348 -349 0
-348 -350 0
-349 -350 0
346 347 348 349 350 0
-351 -352 0
-351 -353 0
-351 -354 0
-351 -355 0
-352 -353 0
-352 -354 0
-352 -355 0
-353 -354 0
-353 -355 0
-354 -355 0
351 352 353 354 355 0
-356 -357 0
-356 -358 0
-356 -359 0
-356 -360 0
-357 -358 0
-357 -359 0
-357 -360 0
-358 -359 0
-358 -360 0
-359 -360 0
356 357 358 359 360 0
-361 -362 0
-361 -363 0
-361 -364 0
-361 -365 0
-362 -363 0
-362 -364 0
-362 -365 0
-363 -364 0
-363 -365 0
-364 -365 0
361 362 363 364 365 0
-366 -367 0
-366 -368 0
-366 -369 0
-366 -370 0
-367 -368 0
-367 -369 0
-367 -370 0
-368 -369 0
-368 -370 0
-369 -370 0
366 367 368 369 370 0
-371 -372 0
-371 -373 0
-371 -374 0
-371 -375 0
-372 -373 0
-372 -374 0
-372 -375 0
-373 -374 0
-373 -375 0
-374 -375 0
371 372 373 374 375 0
-376 -377 0
-376 -378 0
-376 -379 0
-376 -380 0
-377 -378 0
-377 -379 0
-377 -380 0
-378 -379 0
-378 -380 0
-379 -380 0
376 377 378 379 380 0
-381 -382 0
-381 -383 0
-381 -384 0
-381 -385 0
-382 -383 0
-382 -384 0
-382 -385 0
-383 -384 0
-383 -385 0
-384 -385 0
381 382 383 384 385 0
-386 -387 0
-386 -388 0
-386 -389 0
-386 -390 0
-387 -388 0
-387 -389 0
-387 -390 0
-388 -389 0
-388 -390 0
-389 -390 0
386 387 388 389 390 0
-391 -392 0
-391 -393 0
-391 -394 0
-391 -395 0
-392 -393 0
-392 -394 0
-392 -395 0
-393 -394 0
-393 -395 0
-394 -395 0
391 392 393 394 395 0
-396 -397 0
-396 -398 0
-396 -399 0
-396 -400 0
-397 -398 0
-397 -399 0
-397 -400 0
-398 -399 0
-398 -400 0
-399 -400 0
396 397 398 399 400 0
-401 -402 0
-401 -403 0
-401 -404 0
-401 -405 0
-402 -403 0
-402 -404 0
-402 -405 0
-403 -404 0
-403 -405 0
-404 -405 0
401 402 403 404 405 0
-406 -407 0
-406 -408 0
-406 -409 0
-406 -410 0
-407 -408 0
-407 -409 0
-407 -410 0
-408 -409 0
-408 -410 0
-409 -410 0
406 407 408 409 410 0
-411 -412 0
-411 -413 0
-411 -414 0
-411 -415 0
-412 -413 0
-412 -414 0
-412 -415 0
-413 -414 0
-413 -415 0
-414 -415 0
411 412 413 414 415 0
-416 -417 0
-416 -418 0
-416 -419 0
-416 -420 0
-417 -418 0
-417 -419 0
-417 -420 0
-418 -419 0
-418 -420 0
-419 -420 0
416 417 418 419 420 0
-421 -422 0
-421 -423 0
-421 -424 0
-421 -425 0
-422 -423 0
-422 -424 0
-422 -425 0
-423 -424 0
-423 -425 0
-424 -425 0
421 422 423 424 425 0
-426 -427 0
-426 -428 0
-426 -429 0
-426 -430 0
-427 -428 0
-427 -429 0
-427 -430 0
-428 -429 0
-428 -430 0
-429 -430 0
426 427 428 429 430 0
-431 -432 0
-431 -433 0
-431 -434 0
-431 -435 0
-432 -433 0
-432 -434 0
-432 -435 0
-433 -434 0
-433 -435 0
-434 -435 0
431 432 433 434 435 0
-436 -437 0
-436 -438 0
-436 -439 0
-436 -440 0
-437 -438 0
-437 -439 0
-437 -440 0
-438 -439 0
-438 -440 0
-439 -440 0
436 437 438 439 440 0
-441 -442 0
-441 -443 0
-441 -444 0
-441 -445 0
-442 -443 0
-442 -444 0
-442 -445 0
-443 -444 0
-443 -445 0
-444 -445 0
441 442 443 444 445 0
-446 -447 0
-446 -448 0
-446 -449 0
-446 -450 0
-447 -448 0
-447 -449 0
-447 -450 0
-448 -449 0
-448 -450 0
-449 -450 0
446 447 448 449 450 0
-451 -452 0
-451 -453 0
-451 -454 0
-451 -455 0
-452 -453 0
-452 -454 0
-452 -455 0
-453 -454 0
-453 -455 0
-454 -455 0
451 452 453 454 455 0
-456 -457 0
-456 -458 0
-456 -459 0
-456 -460 0
-457 -458 0
-457 -459 0
-457 -460 0
-458 -459 0
-458 -460 0
-459 -460 0
456 457 458 459 460 0
-461 -462 0
-461 -463 0
-461 -464 0
-461 -465 0
-462 -463 0
-462 -464 0
-462 -465 0
-463 -464 0
-463 -465 0
-464 -465 0
461 462 463 464 465 0
-466 -467 0
-466 -468 0
-466 -469 0
-466 -470 0
-467 -468 0
-467 -469 0
-467 -470 0
-468 -469 0
-468 -470 0
-469 -470 0
466 467 468 469 470 0
-471 -472 0
-471 -473 0
-471 -474 0
-471 -475 0
-472 -473 0
-472 -474 0
-472 -475 0
-473 -474 0
-473 -475 0
-474 -475 0
471 472 473 474 475 0
-476 -477 0
-476 -478 0
-476 -479 0
-476 -480 0
-477 -478 0
-477 -479 0
-477 -480 0
-478 -479 0
-478 -480 0
-479 -480 0
476 477 478 479 480 0
-481 -482 0
-481 -483 0
-481 -484 0
-481 -485 0
-482 -483 0
-482 -484 0
-482 -485 0
-483 -484 0
-483 -485 0
-484 -485 0
481 482 483 484 485 0
-486 -487 0
-486 -488 0
-486 -489 0
-486 -490 0
-487 -488 0
-487 -489 0
-487 -490 0
-488 -489 0
-488 -490 0
-489 -490 0
486 487 488 489 490 0
-491 -492 0
-491 -493 0
-491 -494 0
-491 -495 0
-492 -493 0
-492 -494 0
-492 -495 0
-493 -494 0
-493 -495 0
-494 -495 0
491 492 493 494 495 0
-496 -497 0
-496 -498 0
-496 -499 0
-496 -500 0
-497 -498 0
-497 -499 0
-497 -500 0
-498 -499 0
-498 -500 0
-499 -500 0
496 497 498 499 500 0
-21 -26 0
-22 -27 0
-23 -28 0
-24 -29 0
-25 -30 0
-31 -46 0
-32 -47 0
-33 -48 0
-34 -49 0
-35 -50 0
-36 -51 0
-37 -52 0
-38 -53 0
-39 -54 0
-40 -55 0
-46 -66 0
-47 -67 0
-48 -68 0
-49 -69 0
-50 -70 0
-61 -71 0
-62 -72 0
-63 -73 0
-64 -74 0
-65 -75 0
-91 -101 0
-92 -102 0
-93 -103 0
-94 -104 0
-95 -105 0
-96 -116 0
-97 -117 0
-98 -118 0
-99 -119 0
-100 -120 0
-121 -126 0
-122 -127 0
-123 -128 0
-124 -129 0
-125 -130 0
-131 -151 0
-132 -152 0
-133 -153 0
-134 -154 0
-135 -155 0
-186 -206 0
-187 -207 0
-188 -208 0
-189 -209 0
-190 -210 0
-201 -206 0
-202 -207 0
-203 -208 0
-204 -209 0
-205 -210 0
-266 -281 0
-267 -282 0
-268 -283 0
-269 -284 0
-270 -285 0
-276 -291 0
-277 -292 0
-278 -293 0
-279 -294 0
-280 -295 0
-281 -296 0
-282 -297 0
-283 -298 0
-284 -299 0
-285 -300 0
-286 -296 0
-287 -297 0
-288 -298 0
-289 -299 0
-290 -300 0
-326 -336 0
-327 -337 0
-328 -338 0
-329 -339 0
-330 -340 0
-326 -341 0
-327 -342 0
-328 -343 0
-329 -344 0
-330 -345 0
-326 -346 0
-327 -347 0
-328 -348 0
-329 -349 0
-330 -350 0
-341 -346 0
-342 -347 0
-343 -348 0
-344 -349 0
-345 -350 0
-351 -356 0
-352 -357 0
-353 -358 0
-354 -359 0
-355 -360 0
-351 -361 0
-352 -362 0
-353 -363 0
-354 -364 0
-355 -365 0
-366 -381 0
-367 -382 0
-368 -383 0
-369 -384 0
-370 -385 0
-371 -381 0
-372 -382 0
-373 -383 0
-374 -384 0
-375 -385 0
-376 -396 0
-377 -397 0
-378 -398 0
-379 -399 0
-380 -400 0
-396 -411 0
-397 -412 0
-398 -413 0
-399 -414 0
-400 -415 0
-421 -431 0
-422 -432 0
-423 -433 0
-424 -434 0
-425 -435 0
-431 -436 0
-432 -437 0
-433 -438 0
-434 -439 0
-435 -440 0
-456 -461 0
-457 -462 0
-458 -463 0
-459 -464 0
-460 -465 0
-461 -471 0
-462 -472 0
-463 -473 0
-464 -474 0
-465 -475 0
-471 -491 0
-472 -492 0
-473 -493 0
-474 -494 0
-475 -495 0
-481 -496 0
-482 -497 0
-483 -498 0
-484 -499 0
-485 -500 0
-16 -496 0
-17 -497 0
-18 -498 0
-19 -499 0
-20 -500 0
-1 -61 0
-2 -62 0
-3 -63 0
-4 -64 0
-5 -65 0
-1 -141 0
-2 -142 0
-3 -143 0
-4 -144 0
-5 -145 0
-1 -216 0
-2 -217 0
-3 -218 0
-4 -219 0
-5 -220 0
-1 -261 0
-2 -262 0
-3 -263 0
-4 -264 0
-5 -265 0
-1 -361 0
-2 -362 0
-3 -363 0
-4 -364 0
-5 -365 0
-1 -426 0
-2 -427 0
-3 -428 0
-4 -429 0
-5 -430 0
-1 -466 0
-2 -467 0
-3 -468 0
-4 -469 0
-5 -470 0
-6 -36 0
-7 -37 0
-8 -38 0
-9 -39 0
-10 -40 0
-6 -86 0
-7 -87 0
-8 -88 0
-9 -89 0
-10 -90 0
-6 -171 0
-7 -172 0
-8 -173 0
-9 -174 0
-10 -175 0
-6 -226 0
-7 -227 0
-8 -228 0
-9 -229 0
-10 -230 0
-6 -261 0
-7 -262 0
-8 -263 0
-9 -264 0
-10 -265 0
-6 -291 0
-7 -292 0
-8 -293 0
-9 -294 0
-10 -295 0
-6 -346 0
-7 -347 0
-8 -348 0
-9 -349 0
-10 -350 0
-6 -476 0
-7 -477 0
-8 -478 0
-9 -479 0
-10 -480 0
-11 -76 0
-12 -77 0
-13 -78 0
-14 -79 0
-15 -80 0
-11 -136 0
-12 -137 0
-13 -138 0
-14 -139 0
-15 -140 0
-11 -151 0
-12 -152 0
-13 -153 0
-14 -154 0
-15 -155 0
-11 -271 0
-12 -272 0
-13 -273 0
-14 -274 0
-15 -275 0
-11 -326 0
-12 -327 0
-13 -328 0
-14 -329 0
-15 -330 0
-11 -336 0
-12 -337 0
-13 -338 0
-14 -339 0
-15 -340 0
-11 -366 0
-12 -367 0
-13 -368 0
-14 -369 0
-15 -370 0
-11 -391 0
-12 -392 0
-13 -393 0
-14 -394 0
-15 -395 0
-11 -481 0
-12 -482 0
-13 -483 0
-14 -484 0
-15 -485 0
-16 -136 0
-17 -137 0
-18 -138 0
-19 -139 0
-20 -140 0
-16 -176 0
-17 -177 0
-18 -178 0
-19 -179 0
-20 -180 0
-16 -416 0
-17 -417 0
-18 -418 0
-19 -419 0
-20 -420 0
-16 -426 0
-17 -427 0
-18 -428 0
-19 -429 0
-20 -430 0
-16 -456 0
-17 -457 0
-18 -458 0
-19 -459 0
-20 -460 0
-21 -56 0
-22 -57 0
-23 -58 0
-24 -59 0
-25 -60 0
-21 -61 0
-22 -62 0
-23 -63 0
-24 -64 0
-25 -65 0
-21 -96 0
-22 -97 0
-23 -98 0
-24 -99 0
-25 -100 0
-21 -131 0
-22 -132 0
-23 -133 0
-24 -134 0
-25 -135 0
-21 -221 0
-22 -222 0
-23 -223 0
-24 -224 0
-25 -225 0
-21 -371 0
-22 -372 0
-23 -373 0
-24 -374 0
-25 -375 0
-21 -386 0
-22 -387 0
-23 -388 0
-24 -389 0
-25 -390 0
-21 -441 0
-22 -442 0
-23 -443 0
-24 -444 0
-25 -445 0
-26 -81 0
-27 -82 0
-28 -83 0
-29 -84 0
-30 -85 0
-26 -186 0
-27 -187 0
-28 -188 0
-29 -189 0
-30 -190 0
-26 -286 0
-27 -287 0
-28 -288 0
-29 -289 0
-30 -290 0
-26 -301 0
-27 -302 0
-28 -303 0
-29 -304 0
-30 -305 0
-26 -381 0
-27 -382 0
-28 -383 0
-29 -384 0
-30 -385 0
-26 -451 0
-27 -452 0
-28 -453 0
-29 -454 0
-30 -455 0
-26 -491 0
-27 -492 0
-28 -493 0
-29 -494 0
-30 -495 0
-31 -126 0
-32 -127 0
-33 -128 0
-34 -129 0
-35 -130 0
-31 -151 0
-32 -152 0
-33 -153 0
-34 -154 0
-35 -155 0
-31 -206 0
-32 -207 0
-33 -208 0
-34 -209 0
-35 -210 0
-31 -211 0
-32 -212 0
-33 -213 0
-34 -214 0
-35 -215 0
-31 -231 0
-32 -232 0
-33 -233 0
-34 -234 0
-35 -235 0
-31 -266 0
-32 -267 0
-33 -268 0
-34 -269 0
-35 -270 0
-36 -146 0
-37 -147 0
-38 -148 0
-39 -149 0
-40 -150 0
-36 -161 0
-37 -162 0
-38 -163 0
-39 -164 0
-40 -165 0
-36 -271 0
-37 -272 0
-38 -273 0
-39 -274 0
-40 -275 0
-36 -391 0
-37 -392 0
-38 -393 0
-39 -394 0
-40 -395 0
-36 -436 0
-37 -437 0
-38 -438 0
-39 -439 0
-40 -440 0
-36 -441 0
-37 -442 0
-38 -443 0
-39 -444 0
-40 -445 0
-41 -106 0
-42 -107 0
-43 -108 0
-44 -109 0
-45 -110 0
-41 -231 0
-42 -232 0
-43 -233 0
-44 -234 0
-45 -235 0
-46 -181 0
-47 -182 0
-48 -183 0
-49 -184 0
-50 -185 0
-46 -251 0
-47 -252 0
-48 -253 0
-49 -254 0
-50 -255 0
-46 -266 0
-47 -267 0
-48 -268 0
-49 -269 0
-50 -270 0
-46 -276 0
-47 -277 0
-48 -278 0
-49 -279 0
-50 -280 0
-46 -341 0
-47 -342 0
-48 -343 0
-49 -344 0
-50 -345 0
-46 -361 0
-47 -362 0
-48 -363 0
-49 -364 0
-50 -365 0
-46 -441 0
-47 -442 0
-48 -443 0
-49 -444 0
-50 -445 0
-46 -456 0
-47 -457 0
-48 -458 0
-49 -459 0
-50 -460 0
-46 -461 0
-47 -462 0
-48 -463 0
-49 -464 0
-50 -465 0
-46 -486 0
-47 -487 0
-48 -488 0
-49 -489 0
-50 -490 0
-46 -496 0
-47 -497 0
-48 -498 0
-49 -499 0
-50 -500 0
-51 -116 0
-52 -117 0
-53 -118 0
-54 -119 0
-55 -120 0
-51 -121 0
-52 -122 0
-53 -123 0
-54 -124 0
-55 -125 0
-51 -186 0
-52 -187 0
-53 -188 0
-54 -189 0
-55 -190 0
-51 -291 0
-52 -292 0
-53 -293 0
-54 -294 0
-55 -295 0
-51 -381 0
-52 -382 0
-53 -383 0
-54 -384 0
-55 -385 0
-51 -436 0
-52 -437 0
-53 -438 0
-54 -439 0
-55 -440 0
-51 -491 0
-52 -492 0
-53 -493 0
-54 -494 0
-55 -495 0
-56 -126 0
-57 -127 0
-58 -128 0
-59 -129 0
-60 -130 0
-56 -151 0
-57 -152 0
-58 -153 0
-59 -154 0
-60 -155 0
-56 -171 0
-57 -172 0
-58 -173 0
-59 -174 0
-60 -175 0
-56 -291 0
-57 -292 0
-58 -293 0
-59 -294 0
-60 -295 0
-56 -351 0
-57 -352 0
-58 -353 0
-59 -354 0
-60 -355 0
-56 -426 0
-57 -427 0
-58 -428 0
-59 -429 0
-60 -430 0
-56 -446 0
-57 -447 0
-58 -448 0
-59 -449 0
-60 -450 0
-56 -496 0
-57 -497 0
-58 -498 0
-59 -499 0
-60 -500 0
-61 -191 0
-62 -192 0
-63 -193 0
-64 -194 0
-65 -195 0
-61 -231 0
-62 -232 0
-63 -233 0
-64 -234 0
-65 -235 0
-61 -326 0
-62 -327 0
-63 -328 0
-64 -329 0
-65 -330 0
-61 -341 0
-62 -342 0
-63 -343 0
-64 -344 0
-65 -345 0
-61 -456 0
-62 -457 0
-63 -458 0
-64 -459 0
-65 -460 0
-61 -461 0
-62 -462 0
-63 -463 0
-64 -464 0
-65 -465 0
-61 -466 0
-62 -467 0
-63 -468 0
-64 -469 0
-65 -470 0
-61 -481 0
-62 -482 0
-63 -483 0
-64 -484 0
-65 -485 0
-66 -156 0
-67 -157 0
-68 -158 0
-69 -159 0
-70 -160 0
-66 -196 0
-67 -197 0
-68 -198 0
-69 -199 0
-70 -200 0
-66 -206 0
-67 -207 0
-68 -208 0
-69 -209 0
-70 -210 0
-66 -251 0
-67 -252 0
-68 -253 0
-69 -254 0
-70 -255 0
-66 -266 0
-67 -267 0
-68 -268 0
-69 -269 0
-70 -270 0
-66 -316 0
-67 -317 0
-68 -318 0
-69 -319 0
-70 -320 0
-66 -336 0
-67 -337 0
-68 -338 0
-69 -339 0
-70 -340 0
-71 -101 0
-72 -102 0
-73 -103 0
-74 -104 0
-75 -105 0
-71 -136 0
-72 -137 0
-73 -138 0
-74 -139 0
-75 -140 0
-71 -186 0
-72 -187 0
-73 -188 0
-74 -189 0
-75 -190 0
-71 -261 0
-72 -262 0
-73 -263 0
-74 -264 0
-75 -265 0
-71 -271 0
-72 -272 0
-73 -273 0
-74 -274 0
-75 -275 0
-76 -401 0
-77 -402 0
-78 -403 0
-79 -404 0
-80 -405 0
-81 -126 0
-82 -127 0
-83 -128 0
-84 -129 0
-85 -130 0
-81 -216 0
-82 -217 0
-83 -218 0
-84 -219 0
-85 -220 0
-81 -291 0
-82 -292 0
-83 -293 0
-84 -294 0
-85 -295 0
-81 -331 0
-82 -332 0
-83 -333 0
-84 -334 0
-85 -335 0
-86 -151 0
-87 -152 0
-88 -153 0
-89 -154 0
-90 -155 0
-86 -221 0
-87 -222 0
-88 -223 0
-89 -224 0
-90 -225 0
-86 -291 0
-87 -292 0
-88 -293 0
-89 -294 0
-90 -295 0
-86 -326 0
-87 -327 0
-88 -328 0
-89 -329 0
-90 -330 0
-86 -356 0
-87 -357 0
-88 -358 0
-89 -359 0
-90 -360 0
-86 -436 0
-87 -437 0
-88 -438 0
-89 -439 0
-90 -440 0
-91 -196 0
-92 -197 0
-93 -198 0
-94 -199 0
-95 -200 0
-91 -306 0
-92 -307 0
-93 -308 0
-94 -309 0
-95 -310 0
-91 -341 0
-92 -342 0
-93 -343 0
-94 -344 0
-95 -345 0
-91 -351 0
-92 -352 0
-93 -353 0
-94 -354 0
-95 -355 0
-91 -376 0
-92 -377 0
-93 -378 0
-94 -379 0
-95 -380 0
-96 -211 0
-97 -212 0
-98 -213 0
-99 -214 0
-100 -215 0
-96 -221 0
-97 -222 0
-98 -223 0
-99 -224 0
-100 -225 0
-96 -251 0
-97 -252 0
-98 -253 0
-99 -254 0
-100 -255 0
-96 -301 0
-97 -302 0
-98 -303 0
-99 -304 0
-100 -305 0
-96 -441 0
-97 -442 0
-98 -443 0
-99 -444 0
-100 -445 0
-96 -451 0
-97 -452 0
-98 -453 0
-99 -454 0
-100 -455 0
-101 -126 0
-102 -127 0
-103 -128 0
-104 -129 0
-105 -130 0
-101 -146 0
-102 -147 0
-103 -148 0
-104 -149 0
-105 -150 0
-101 -231 0
-102 -232 0
-103 -233 0
-104 -234 0
-105 -235 0
-101 -271 0
-102 -272 0
-103 -273 0
-104 -274 0
-105 -275 0
-101 -321 0
-102 -322 0
-103 -323 0
-104 -324 0
-105 -325 0
-101 -361 0
-102 -362 0
-103 -363 0
-104 -364 0
-105 -365 0
-101 -436 0
-102 -437 0
-103 -438 0
-104 -439 0
-105 -440 0
-101 -481 0
-102 -482 0
-103 -483 0
-104 -484 0
-105 -485 0
-106 -131 0
-107 -132 0
-108 -133 0
-109 -134 0
-110 -135 0
-106 -166 0
-107 -167 0
-108 -168 0
-109 -169 0
-110 -170 0
-106 -231 0
-107 -232 0
-108 -233 0
-109 -234 0
-110 -235 0
-106 -296 0
-107 -297 0
-108 -298 0
-109 -299 0
-110 -300 0
-106 -366 0
-107 -367 0
-108 -368 0
-109 -369 0
-110 -370 0
-106 -396 0
-107 -397 0
-108 -398 0
-109 -399 0
-110 -400 0
-106 -421 0
-107 -422 0
-108 -423 0
-109 -424 0
-110 -425 0
-111 -306 0
-112 -307 0
-113 -308 0
-114 -309 0
-115 -310 0
-111 -416 0
-112 -417 0
-113 -418 0
-114 -419 0
-115 -420 0
-111 -491 0
-112 -492 0
-113 -493 0
-114 -494 0
-115 -495 0
-111 -496 0
-112 -497 0
-113 -498 0
-114 -499 0
-115 -500 0
-116 -166 0
-117 -167 0
-118 -168 0
-119 -169 0
-120 -170 0
-116 -216 0
-117 -217 0
-118 -218 0
-119 -219 0
-120 -220 0
-116 -261 0
-117 -262 0
-118 -263 0
-119 -264 0
-120 -265 0
-116 -281 0
-117 -282 0
-118 -283 0
-119 -284 0
-120 -285 0
-116 -331 0
-117 -332 0
-118 -333 0
-119 -334 0
-120 -335 0
-116 -351 0
-117 -352 0
-118 -353 0
-119 -354 0
-120 -355 0
-116 -356 0
-117 -357 0
-118 -358 0
-119 -359 0
-120 -360 0
-116 -361 0
-117 -362 0
-118 -363 0
-119 -364 0
-120 -365 0
-116 -436 0
-117 -437 0
-118 -438 0
-119 -439 0
-120 -440 0
-116 -456 0
-117 -457 0
-118 -458 0
-119 -459 0
-120 -460 0
-121 -156 0
-122 -157 0
-123 -158 0
-124 -159 0
-125 -160 0
-121 -181 0
-122 -182 0
-123 -183 0
-124 -184 0
-125 -185 0
-121 -191 0
-122 -192 0
-123 -193 0
-124 -194 0
-125 -195 0
-121 -196 0
-122 -197 0
-123 -198 0
-124 -199 0
-125 -200 0
-121 -221 0
-122 -222 0
-123 -223 0
-124 -224 0
-125 -225 0
-121 -301 0
-122 -302 0
-123 -303 0
-124 -304 0
-125 -305 0
-121 -376 0
-122 -377 0
-123 -378 0
-124 -379 0
-125 -380 0
-121 -406 0
-122 -407 0
-123 -408 0
-124 -409 0
-125 -410 0
-121 -491 0
-122 -492 0
-123 -493 0
-124 -494 0
-125 -495 0
-121 -496 0
-122 -497 0
-123 -498 0
-124 -499 0
-125 -500 0
-126 -171 0
-127 -172 0
-128 -173 0
-129 -174 0
-130 -175 0
-126 -191 0
-127 -192 0
-128 -193 0
-129 -194 0
-130 -195 0
-126 -196 0
-127 -197 0
-128 -198 0
-129 -199 0
-130 -200 0
-126 -271 0
-127 -272 0
-128 -273 0
-129 -274 0
-130 -275 0
-126 -286 0
-127 -287 0
-128 -288 0
-129 -289 0
-130 -290 0
-126 -356 0
-127 -357 0
-128 -358 0
-129 -359 0
-130 -360 0
-126 -396 0
-127 -397 0
-128 -398 0
-129 -399 0
-130 -400 0
-126 -416 0
-127 -417 0
-128 -418 0
-129 -419 0
-130 -420 0
-126 -436 0
-127 -437 0
-128 -438 0
-129 -439 0
-130 -440 0
-131 -161 0
-132 -162 0
-133 -163 0
-134 -164 0
-135 -165 0
-131 -181 0
-132 -182 0
-133 -183 0
-134 -184 0
-135 -185 0
-131 -406 0
-132 -407 0
-133 -408 0
-134 -409 0
-135 -410 0
-131 -466 0
-132 -467 0
-133 -468 0
-134 -469 0
-135 -470 0
-131 -481 0
-132 -482 0
-133 -483 0
-134 -484 0
-135 -485 0
-136 -171 0
-137 -172 0
-138 -173 0
-139 -174 0
-140 -175 0
-136 -216 0
-137 -217 0
-138 -218 0
-139 -219 0
-140 -220 0
-136 -266 0
-137 -267 0
-138 -268 0
-139 -269 0
-140 -270 0
-136 -271 0
-137 -272 0
-138 -273 0
-139 -274 0
-140 -275 0
-136 -336 0
-137 -337 0
-138 -338 0
-139 -339 0
-140 -340 0
-136 -401 0
-137 -402 0
-138 -403 0
-139 -404 0
-140 -405 0
-136 -416 0
-137 -417 0
-138 -418 0
-139 -419 0
-140 -420 0
-141 -376 0
-142 -377 0
-143 -378 0
-144 -379 0
-145 -380 0
-141 -436 0
-142 -437 0
-143 -438 0
-144 -439 0
-145 -440 0
-141 -441 0
-142 -442 0
-143 -443 0
-144 -444 0
-145 -445 0
-141 -481 0
-142 -482 0
-143 -483 0
-144 -484 0
-145 -485 0
-146 -191 0
-147 -192 0
-148 -193 0
-149 -194 0
-150 -195 0
-146 -256 0
-147 -257 0
-148 -258 0
-149 -259 0
-150 -260 0
-146 -311 0
-147 -312 0
-148 -313 0
-149 -314 0
-150 -315 0
-146 -401 0
-147 -402 0
-148 -403 0
-149 -404 0
-150 -405 0
-146 -451 0
-147 -452 0
-148 -453 0
-149 -454 0
-150 -455 0
-151 -441 0
-152 -442 0
-153 -443 0
-154 -444 0
-155 -445 0
-156 -186 0
-157 -187 0
-158 -188 0
-159 -189 0
-160 -190 0
-156 -216 0
-157 -217 0
-158 -218 0
-159 -219 0
-160 -220 0
-156 -246 0
-157 -247 0
-158 -248 0
-159 -249 0
-160 -250 0
-156 -426 0
-157 -427 0
-158 -428 0
-159 -429 0
-160 -430 0
-156 -446 0
-157 -447 0
-158 -448 0
-159 -449 0
-160 -450 0
-161 -416 0
-162 -417 0
-163 -418 0
-164 -419 0
-165 -420 0
-161 -426 0
-162 -427 0
-163 -428 0
-164 -429 0
-165 -430 0
-166 -246 0
-167 -247 0
-168 -248 0
-169 -249 0
-170 -250 0
-166 -341 0
-167 -342 0
-168 -343 0
-169 -344 0
-170 -345 0
-171 -211 0
-172 -212 0
-173 -213 0
-174 -214 0
-175 -215 0
-171 -241 0
-172 -242 0
-173 -243 0
-174 -244 0
-175 -245 0
-171 -266 0
-172 -267 0
-173 -268 0
-174 -269 0
-175 -270 0
-176 -221 0
-177 -222 0
-178 -223 0
-179 -224 0
-180 -225 0
-176 -226 0
-177 -227 0
-178 -228 0
-179 -229 0
-180 -230 0
-176 -231 0
-177 -232 0
-178 -233 0
-179 -234 0
-180 -235 0
-176 -286 0
-177 -287 0
-178 -288 0
-179 -289 0
-180 -290 0
-176 -356 0
-177 -357 0
-178 -358 0
-179 -359 0
-180 -360 0
-176 -371 0
-177 -372 0
-178 -373 0
-179 -374 0
-180 -375 0
-176 -391 0
-177 -392 0
-178 -393 0
-179 -394 0
-180 -395 0
-176 -431 0
-177 -432 0
-178 -433 0
-179 -434 0
-180 -435 0
-181 -261 0
-182 -262 0
-183 -263 0
-184 -264 0
-185 -265 0
-181 -281 0
-182 -282 0
-183 -283 0
-184 -284 0
-185 -285 0
-181 -286 0
-182 -287 0
-183 -288 0
-184 -289 0
-185 -290 0
-181 -406 0
-182 -407 0
-183 -408 0
-184 -409 0
-185 -410 0
-181 -466 0
-182 -467 0
-183 -468 0
-184 -469 0
-185 -470 0
-181 -481 0
-182 -482 0
-183 -483 0
-184 -484 0
-185 -485 0
-186 -231 0
-187 -232 0
-188 -233 0
-189 -234 0
-190 -235 0
-186 -271 0
-187 -272 0
-188 -273 0
-189 -274 0
-190 -275 0
-186 -276 0
-187 -277 0
-188 -278 0
-189 -279 0
-190 -280 0
-186 -296 0
-187 -297 0
-188 -298 0
-189 -299 0
-190 -300 0
-186 -331 0
-187 -332 0
-188 -333 0
-189 -334 0
-190 -335 0
-191 -326 0
-192 -327 0
-193 -328 0
-194 -329 0
-195 -330 0
-191 -331 0
-192 -332 0
-193 -333 0
-194 -334 0
-195 -335 0
-191 -366 0
-192 -367 0
-193 -368 0
-194 -369 0
-195 -370 0
-191 -386 0
-192 -387 0
-193 -388 0
-194 -389 0
-195 -390 0
-191 -441 0
-192 -442 0
-193 -443 0
-194 -444 0
-195 -445 0
-191 -461 0
-192 -462 0
-193 -463 0
-194 -464 0
-195 -465 0
-196 -231 0
-197 -232 0
-198 -233 0
-199 -234 0
-200 -235 0
-196 -321 0
-197 -322 0
-198 -323 0
-199 -324 0
-200 -325 0
-196 -336 0
-197 -337 0
-198 -338 0
-199 -339 0
-200 -340 0
-196 -361 0
-197 -362 0
-198 -363 0
-199 -364 0
-200 -365 0
-196 -431 0
-197 -432 0
-198 -433 0
-199 -434 0
-200 -435 0
-196 -481 0
-197 -482 0
-198 -483 0
-199 -484 0
-200 -485 0
-196 -486 0
-197 -487 0
-198 -488 0
-199 -489 0
-200 -490 0
-196 -491 0
-197 -492 0
-198 -493 0
-199 -494 0
-200 -495 0
-201 -286 0
-202 -287 0
-203 -288 0
-204 -289 0
-205 -290 0
-201 -406 0
-202 -407 0
-203 -408 0
-204 -409 0
-205 -410 0
-206 -376 0
-207 -377 0
-208 -378 0
-209 -379 0
-210 -380 0
-206 -406 0
-207 -407 0
-208 -408 0
-209 -409 0
-210 -410 0
-211 -266 0
-212 -267 0
-213 -268 0
-214 -269 0
-215 -270 0
-211 -306 0
-212 -307 0
-213 -308 0
-214 -309 0
-215 -310 0
-211 -316 0
-212 -317 0
-213 -318 0
-214 -319 0
-215 -320 0
-216 -276 0
-217 -277 0
-218 -278 0
-219 -279 0
-220 -280 0
-216 -301 0
-217 -302 0
-218 -303 0
-219 -304 0
-220 -305 0
-216 -341 0
-217 -342 0
-218 -343 0
-219 -344 0
-220 -345 0
-216 -346 0
-217 -347 0
-218 -348 0
-219 -349 0
-220 -350 0
-216 -391 0
-217 -392 0
-218 -393 0
-219 -394 0
-220 -395 0
-216 -406 0
-217 -407 0
-218 -408 0
-219 -409 0
-220 -410 0
-216 -416 0
-217 -417 0
-218 -418 0
-219 -419 0
-220 -420 0
-216 -451 0
-217 -452 0
-218 -453 0
-219 -454 0
-220 -455 0
-221 -356 0
-222 -357 0
-223 -358 0
-224 -359 0
-225 -360 0
-221 -416 0
-222 -417 0
-223 -418 0
-224 -419 0
-225 -420 0
-226 -331 0
-227 -332 0
-228 -333 0
-229 -334 0
-230 -335 0
-226 -376 0
-227 -377 0
-228 -378 0
-229 -379 0
-230 -380 0
-226 -406 0
-227 -407 0
-228 -408 0
-229 -409 0
-230 -410 0
-231 -281 0
-232 -282 0
-233 -283 0
-234 -284 0
-235 -285 0
-231 -326 0
-232 -327 0
-233 -328 0
-234 -329 0
-235 -330 0
-231 -366 0
-232 -367 0
-233 -368 0
-234 -369 0
-235 -370 0
-236 -266 0
-237 -267 0
-238 -268 0
-239 -269 0
-240 -270 0
-236 -456 0
-237 -457 0
-238 -458 0
-239 -459 0
-240 -460 0
-236 -461 0
-237 -462 0
-238 -463 0
-239 -464 0
-240 -465 0
-241 -346 0
-242 -347 0
-243 -348 0
-244 -349 0
-245 -350 0
-241 -356 0
-242 -357 0
-243 -358 0
-244 -359 0
-245 -360 0
-241 -456 0
-242 -457 0
-243 -458 0
-244 -459 0
-245 -460 0
-246 -441 0
-247 -442 0
-248 -443 0
-249 -444 0
-250 -445 0
-246 -451 0
-247 -452 0
-248 -453 0
-249 -454 0
-250 -455 0
-251 -296 0
-252 -297 0
-253 -298 0
-254 -299 0
-255 -300 0
-251 -301 0
-252 -302 0
-253 -303 0
-254 -304 0
-255 -305 0
-251 -341 0
-252 -342 0
-253 -343 0
-254 -344 0
-255 -345 0
-251 -351 0
-252 -352 0
-253 -353 0
-254 -354 0
-255 -355 0
-251 -381 0
-252 -382 0
-253 -383 0
-254 -384 0
-255 -385 0
-251 -386 0
-252 -387 0
-253 -388 0
-254 -389 0
-255 -390 0
-251 -411 0
-252 -412 0
-253 -413 0
-254 -414 0
-255 -415 0
-251 -426 0
-252 -427 0
-253 -428 0
-254 -429 0
-255 -430 0
-251 -476 0
-252 -477 0
-253 -478 0
-254 -479 0
-255 -480 0
-256 -281 0
-257 -282 0
-258 -283 0
-259 -284 0
-260 -285 0
-256 -306 0
-257 -307 0
-258 -308 0
-259 -309 0
-260 -310 0
-256 -316 0
-257 -317 0
-258 -318 0
-259 -319 0
-260 -320 0
-256 -366 0
-257 -367 0
-258 -368 0
-259 -369 0
-260 -370 0
-261 -351 0
-262 -352 0
-263 -353 0
-264 -354 0
-265 -355 0
-261 -356 0
-262 -357 0
-263 -358 0
-264 -359 0
-265 -360 0
-261 -401 0
-262 -402 0
-263 -403 0
-264 -404 0
-265 -405 0
-261 -406 0
-262 -407 0
-263 -408 0
-264 -409 0
-265 -410 0
-261 -416 0
-262 -417 0
-263 -418 0
-264 -419 0
-265 -420 0
-261 -421 0
-262 -422 0
-263 -423 0
-264 -424 0
-265 -425 0
-266 -306 0
-267 -307 0
-268 -308 0
-269 -309 0
-270 -310 0
-266 -366 0
-267 -367 0
-268 -368 0
-269 -369 0
-270 -370 0
-266 -371 0
-267 -372 0
-268 -373 0
-269 -374 0
-270 -375 0
-266 -436 0
-267 -437 0
-268 -438 0
-269 -439 0
-270 -440 0
-271 -406 0
-272 -407 0
-273 -408 0
-274 -409 0
-275 -410 0
-271 -466 0
-272 -467 0
-273 -468 0
-274 -469 0
-275 -470 0
-271 -491 0
-272 -492 0
-273 -493 0
-274 -494 0
-275 -495 0
-276 -396 0
-277 -397 0
-278 -398 0
-279 -399 0
-280 -400 0
-276 -466 0
-277 -467 0
-278 -468 0
-279 -469 0
-280 -470 0
-281 -341 0
-282 -342 0
-283 -343 0
-284 -344 0
-285 -345 0
-281 -456 0
-282 -457 0
-283 -458 0
-284 -459 0
-285 -460 0
-281 -491 0
-282 -492 0
-283 -493 0
-284 -494 0
-285 -495 0
-286 -346 0
-287 -347 0
-288 -348 0
-289 -349 0
-290 -350 0
-291 -326 0
-292 -327 0
-293 -328 0
-294 -329 0
-295 -330 0
-291 -331 0
-292 -332 0
-293 -333 0
-294 -334 0
-295 -335 0
-291 -381 0
-292 -382 0
-293 -383 0
-294 -384 0
-295 -385 0
-291 -436 0
-292 -437 0
-293 -438 0
-294 -439 0
-295 -440 0
-296 -416 0
-297 -417 0
-298 -418 0
-299 -419 0
-300 -420 0
-301 -341 0
-302 -342 0
-303 -343 0
-304 -344 0
-305 -345 0
-301 -411 0
-302 -412 0
-303 -413 0
-304 -414 0
-305 -415 0
-301 -431 0
-302 -432 0
-303 -433 0
-304 -434 0
-305 -435 0
-301 -446 0
-302 -447 0
-303 -448 0
-304 -449 0
-305 -450 0
-306 -371 0
-307 -372 0
-308 -373 0
-309 -374 0
-310 -375 0
-306 -396 0
-307 -397 0
-308 -398 0
-309 -399 0
-310 -400 0
-306 -406 0
-307 -407 0
-308 -408 0
-309 -409 0
-310 -410 0
-311 -386 0
-312 -387 0
-313 -388 0
-314 -389 0
-315 -390 0
-311 -446 0
-312 -447 0
-313 -448 0
-314 -449 0
-315 -450 0
-316 -421 0
-317 -422 0
-318 -423 0
-319 -424 0
-320 -425 0
-316 -491 0
-317 -492 0
-318 -493 0
-319 -494 0
-320 -495 0
-326 -376 0
-327 -377 0
-328 -378 0
-329 -379 0
-330 -380 0
-326 -451 0
-327 -452 0
-328 -453 0
-329 -454 0
-330 -455 0
-326 -471 0
-327 -472 0
-328 -473 0
-329 -474 0
-330 -475 0
-331 -446 0
-332 -447 0
-333 -448 0
-334 -449 0
-335 -450 0
-331 -451 0
-332 -452 0
-333 -453 0
-334 -454 0
-335 -455 0
-336 -376 0
-337 -377 0
-338 -378 0
-339 -379 0
-340 -380 0
-336 -381 0
-337 -382 0
-338 -383 0
-339 -384 0
-340 -385 0
-336 -401 0
-337 -402 0
-338 -403 0
-339 -404 0
-340 -405 0
-336 -421 0
-337 -422 0
-338 -423 0
-339 -424 0
-340 -425 0
-336 -441 0
-337 -442 0
-338 -443 0
-339 -444 0
-340 -445 0
-346 -406 0
-347 -407 0
-348 -408 0
-349 -409 0
-350 -410 0
-351 -451 0
-352 -452 0
-353 -453 0
-354 -454 0
-355 -455 0
-361 -426 0
-362 -427 0
-363 -428 0
-364 -429 0
-365 -430 0
-361 -466 0
-362 -467 0
-363 -468 0
-364 -469 0
-365 -470 0
-361 -486 0
-362 -487 0
-363 -488 0
-364 -489 0
-365 -490 0
-361 -491 0
-362 -492 0
-363 -493 0
-364 -494 0
-365 -495 0
-366 -426 0
-367 -427 0
-368 -428 0
-369 -429 0
-370 -430 0
-366 -436 0
-367 -437 0
-368 -438 0
-369 -439 0
-370 -440 0
-366 -451 0
-367 -452 0
-368 -453 0
-369 -454 0
-370 -455 0
-366 -461 0
-367 -462 0
-368 -463 0
-369 -464 0
-370 -465 0
-366 -481 0
-367 -482 0
-368 -483 0
-369 -484 0
-370 -485 0
-371 -396 0
-372 -397 0
-373 -398 0
-374 -399 0
-375 -400 0
-371 -426 0
-372 -427 0
-373 -428 0
-374 -429 0
-375 -430 0
-371 -446 0
-372 -447 0
-373 -448 0
-374 -449 0
-375 -450 0
-376 -431 0
-377 -432 0
-378 -433 0
-379 -434 0
-380 -435 0
-376 -456 0
-377 -457 0
-378 -458 0
-379 -459 0
-380 -460 0
-381 -481 0
-382 -482 0
-383 -483 0
-384 -484 0
-385 -485 0
-386 -431 0
-387 -432 0
-388 -433 0
-389 -434 0
-390 -435 0
-386 -461 0
-387 -462 0
-388 -463 0
-389 -464 0
-390 -465 0
-391 -416 0
-392 -417 0
-393 -418 0
-394 -419 0
-395 -420 0
-391 -451 0
-392 -452 0
-393 -453 0
-394 -454 0
-395 -455 0
-391 -456 0
-392 -457 0
-393 -458 0
-394 -459 0
-395 -460 0
-391 -481 0
-392 -482 0
-393 -483 0
-394 -484 0
-395 -485 0
-391 -496 0
-392 -497 0
-393 -498 0
-394 -499 0
-395 -500 0
-396 -426 0
-397 -427 0
-398 -428 0
-399 -429 0
-400 -430 0
-396 -441 0
-397 -442 0
-398 -443 0
-399 -444 0
-400 -445 0
-396 -456 0
-397 -457 0
-398 -458 0
-399 -459 0
-400 -460 0
-396 -471 0
-397 -472 0
-398 -473 0
-399 -474 0
-400 -475 0
-406 -431 0
-407 -432 0
-408 -433 0
-409 -434 0
-410 -435 0
-406 -436 0
-407 -437 0
-408 -438 0
-409 -439 0
-410 -440 0
-406 -446 0
-407 -447 0
-408 -448 0
-409 -449 0
-410 -450 0
-411 -481 0
-412 -482 0
-413 -483 0
-414 -484 0
-415 -485 0
-416 -491 0
-417 -492 0
-418 -493 0
-419 -494 0
-420 -495 0
-426 -456 0
-427 -457 0
-428 -458 0
-429 -459 0
-430 -460 0
-431 -461 0
-432 -462 0
-433 -463 0
-434 -464 0
-435 -465 0
-436 -476 0
-437 -477 0
-438 -478 0
-439 -479 0
-440 -480 0
-451 -491 0
-452 -492 0
-453 -493 0
-454 -494 0
-455 -495 0
-461 -486 0
-462 -487 0
-463 -488 0
-464 -489 0
-465 -490 0
